p tw 25 63
0 1
0 2
0 9
0 4
0 15
0 18
0 10
1 3
1 2
1 5
1 24
1 19
1 15
2 4
2 7
2 20
2 19
2 24
3 9
3 17
3 18
3 11
4 13
4 16
4 24
4 5
4 22
5 6
5 21
5 9
5 23
6 16
6 8
6 17
7 8
7 10
8 19
8 17
8 20
9 15
9 21
9 24
9 20
10 12
10 11
10 21
11 12
11 14
12 16
13 23
13 18
13 19
13 22
14 15
14 22
15 23
15 18
16 17
17 20
18 20
18 21
21 23
22 23
